p wcnf 24 1040 10
10 -1 -2 -7 8 0
10 -1 -2 -8 7 0
10 -1 -7 -8 2 0
10 -2 -7 -8 0
10 -19 -13 -14 20 0
10 -19 -13 -20 14 0
10 -19 -14 -20 13 0
10 -13 -14 -20 0
10 -2 -1 -3 7 8 9 0
10 -2 -1 -7 3 8 9 0
10 -2 -1 -8 3 7 9 0
10 -2 -1 -9 3 7 8 0
10 -2 -3 -7 1 8 9 0
10 -2 -3 -8 1 7 9 0
10 -2 -3 -9 1 7 8 0
10 -2 -7 -8 1 3 9 0
10 -2 -7 -9 1 3 8 0
10 -2 -8 -9 1 3 7 0
10 -1 -3 -7 8 9 0
10 -1 -3 -8 7 9 0
10 -1 -3 -9 7 8 0
10 -1 -7 -8 3 9 0
10 -1 -7 -9 3 8 0
10 -1 -8 -9 3 7 0
10 -3 -7 -8 1 9 0
10 -3 -7 -9 1 8 0
10 -3 -8 -9 1 7 0
10 -7 -8 -9 1 3 0
10 -20 -13 -14 15 19 21 0
10 -20 -13 -15 14 19 21 0
10 -20 -13 -19 14 15 21 0
10 -20 -13 -21 14 15 19 0
10 -20 -14 -15 13 19 21 0
10 -20 -14 -19 13 15 21 0
10 -20 -14 -21 13 15 19 0
10 -20 -15 -19 13 14 21 0
10 -20 -15 -21 13 14 19 0
10 -20 -19 -21 13 14 15 0
10 -13 -14 -15 19 21 0
10 -13 -14 -19 15 21 0
10 -13 -14 -21 15 19 0
10 -13 -15 -19 14 21 0
10 -13 -15 -21 14 19 0
10 -13 -19 -21 14 15 0
10 -14 -15 -19 13 21 0
10 -14 -15 -21 13 19 0
10 -14 -19 -21 13 15 0
10 -15 -19 -21 13 14 0
10 -3 -2 -4 8 9 10 0
10 -3 -2 -8 4 9 10 0
10 -3 -2 -9 4 8 10 0
10 -3 -2 -10 4 8 9 0
10 -3 -4 -8 2 9 10 0
10 -3 -4 -9 2 8 10 0
10 -3 -4 -10 2 8 9 0
10 -3 -8 -9 2 4 10 0
10 -3 -8 -10 2 4 9 0
10 -3 -9 -10 2 4 8 0
10 -2 -4 -8 9 10 0
10 -2 -4 -9 8 10 0
10 -2 -4 -10 8 9 0
10 -2 -8 -9 4 10 0
10 -2 -8 -10 4 9 0
10 -2 -9 -10 4 8 0
10 -4 -8 -9 2 10 0
10 -4 -8 -10 2 9 0
10 -4 -9 -10 2 8 0
10 -8 -9 -10 2 4 0
10 -21 -14 -15 16 20 22 0
10 -21 -14 -16 15 20 22 0
10 -21 -14 -20 15 16 22 0
10 -21 -14 -22 15 16 20 0
10 -21 -15 -16 14 20 22 0
10 -21 -15 -20 14 16 22 0
10 -21 -15 -22 14 16 20 0
10 -21 -16 -20 14 15 22 0
10 -21 -16 -22 14 15 20 0
10 -21 -20 -22 14 15 16 0
10 -14 -15 -16 20 22 0
10 -14 -15 -20 16 22 0
10 -14 -15 -22 16 20 0
10 -14 -16 -20 15 22 0
10 -14 -16 -22 15 20 0
10 -14 -20 -22 15 16 0
10 -15 -16 -20 14 22 0
10 -15 -16 -22 14 20 0
10 -15 -20 -22 14 16 0
10 -16 -20 -22 14 15 0
10 -4 -3 -5 9 10 11 0
10 -4 -3 -9 5 10 11 0
10 -4 -3 -10 5 9 11 0
10 -4 -3 -11 5 9 10 0
10 -4 -5 -9 3 10 11 0
10 -4 -5 -10 3 9 11 0
10 -4 -5 -11 3 9 10 0
10 -4 -9 -10 3 5 11 0
10 -4 -9 -11 3 5 10 0
10 -4 -10 -11 3 5 9 0
10 -3 -5 -9 10 11 0
10 -3 -5 -10 9 11 0
10 -3 -5 -11 9 10 0
10 -3 -9 -10 5 11 0
10 -3 -9 -11 5 10 0
10 -3 -10 -11 5 9 0
10 -5 -9 -10 3 11 0
10 -5 -9 -11 3 10 0
10 -5 -10 -11 3 9 0
10 -9 -10 -11 3 5 0
10 -22 -15 -16 17 21 23 0
10 -22 -15 -17 16 21 23 0
10 -22 -15 -21 16 17 23 0
10 -22 -15 -23 16 17 21 0
10 -22 -16 -17 15 21 23 0
10 -22 -16 -21 15 17 23 0
10 -22 -16 -23 15 17 21 0
10 -22 -17 -21 15 16 23 0
10 -22 -17 -23 15 16 21 0
10 -22 -21 -23 15 16 17 0
10 -15 -16 -17 21 23 0
10 -15 -16 -21 17 23 0
10 -15 -16 -23 17 21 0
10 -15 -17 -21 16 23 0
10 -15 -17 -23 16 21 0
10 -15 -21 -23 16 17 0
10 -16 -17 -21 15 23 0
10 -16 -17 -23 15 21 0
10 -16 -21 -23 15 17 0
10 -17 -21 -23 15 16 0
10 -5 -4 -6 10 11 12 0
10 -5 -4 -10 6 11 12 0
10 -5 -4 -11 6 10 12 0
10 -5 -4 -12 6 10 11 0
10 -5 -6 -10 4 11 12 0
10 -5 -6 -11 4 10 12 0
10 -5 -6 -12 4 10 11 0
10 -5 -10 -11 4 6 12 0
10 -5 -10 -12 4 6 11 0
10 -5 -11 -12 4 6 10 0
10 -4 -6 -10 11 12 0
10 -4 -6 -11 10 12 0
10 -4 -6 -12 10 11 0
10 -4 -10 -11 6 12 0
10 -4 -10 -12 6 11 0
10 -4 -11 -12 6 10 0
10 -6 -10 -11 4 12 0
10 -6 -10 -12 4 11 0
10 -6 -11 -12 4 10 0
10 -10 -11 -12 4 6 0
10 -23 -16 -17 18 22 24 0
10 -23 -16 -18 17 22 24 0
10 -23 -16 -22 17 18 24 0
10 -23 -16 -24 17 18 22 0
10 -23 -17 -18 16 22 24 0
10 -23 -17 -22 16 18 24 0
10 -23 -17 -24 16 18 22 0
10 -23 -18 -22 16 17 24 0
10 -23 -18 -24 16 17 22 0
10 -23 -22 -24 16 17 18 0
10 -16 -17 -18 22 24 0
10 -16 -17 -22 18 24 0
10 -16 -17 -24 18 22 0
10 -16 -18 -22 17 24 0
10 -16 -18 -24 17 22 0
10 -16 -22 -24 17 18 0
10 -17 -18 -22 16 24 0
10 -17 -18 -24 16 22 0
10 -17 -22 -24 16 18 0
10 -18 -22 -24 16 17 0
10 -6 -5 -11 12 0
10 -6 -5 -12 11 0
10 -6 -11 -12 5 0
10 -5 -11 -12 0
10 -24 -17 -18 23 0
10 -24 -17 -23 18 0
10 -24 -18 -23 17 0
10 -17 -18 -23 0
10 -7 -1 -2 8 13 14 0
10 -7 -1 -8 2 13 14 0
10 -7 -1 -13 2 8 14 0
10 -7 -1 -14 2 8 13 0
10 -7 -2 -8 1 13 14 0
10 -7 -2 -13 1 8 14 0
10 -7 -2 -14 1 8 13 0
10 -7 -8 -13 1 2 14 0
10 -7 -8 -14 1 2 13 0
10 -7 -13 -14 1 2 8 0
10 -1 -2 -8 13 14 0
10 -1 -2 -13 8 14 0
10 -1 -2 -14 8 13 0
10 -1 -8 -13 2 14 0
10 -1 -8 -14 2 13 0
10 -1 -13 -14 2 8 0
10 -2 -8 -13 1 14 0
10 -2 -8 -14 1 13 0
10 -2 -13 -14 1 8 0
10 -8 -13 -14 1 2 0
10 -12 -5 -6 11 17 18 0
10 -12 -5 -11 6 17 18 0
10 -12 -5 -17 6 11 18 0
10 -12 -5 -18 6 11 17 0
10 -12 -6 -11 5 17 18 0
10 -12 -6 -17 5 11 18 0
10 -12 -6 -18 5 11 17 0
10 -12 -11 -17 5 6 18 0
10 -12 -11 -18 5 6 17 0
10 -12 -17 -18 5 6 11 0
10 -5 -6 -11 17 18 0
10 -5 -6 -17 11 18 0
10 -5 -6 -18 11 17 0
10 -5 -11 -17 6 18 0
10 -5 -11 -18 6 17 0
10 -5 -17 -18 6 11 0
10 -6 -11 -17 5 18 0
10 -6 -11 -18 5 17 0
10 -6 -17 -18 5 11 0
10 -11 -17 -18 5 6 0
10 -13 -7 -8 14 19 20 0
10 -13 -7 -14 8 19 20 0
10 -13 -7 -19 8 14 20 0
10 -13 -7 -20 8 14 19 0
10 -13 -8 -14 7 19 20 0
10 -13 -8 -19 7 14 20 0
10 -13 -8 -20 7 14 19 0
10 -13 -14 -19 7 8 20 0
10 -13 -14 -20 7 8 19 0
10 -13 -19 -20 7 8 14 0
10 -7 -8 -14 19 20 0
10 -7 -8 -19 14 20 0
10 -7 -8 -20 14 19 0
10 -7 -14 -19 8 20 0
10 -7 -14 -20 8 19 0
10 -7 -19 -20 8 14 0
10 -8 -14 -19 7 20 0
10 -8 -14 -20 7 19 0
10 -8 -19 -20 7 14 0
10 -14 -19 -20 7 8 0
10 -18 -11 -12 17 23 24 0
10 -18 -11 -17 12 23 24 0
10 -18 -11 -23 12 17 24 0
10 -18 -11 -24 12 17 23 0
10 -18 -12 -17 11 23 24 0
10 -18 -12 -23 11 17 24 0
10 -18 -12 -24 11 17 23 0
10 -18 -17 -23 11 12 24 0
10 -18 -17 -24 11 12 23 0
10 -18 -23 -24 11 12 17 0
10 -11 -12 -17 23 24 0
10 -11 -12 -23 17 24 0
10 -11 -12 -24 17 23 0
10 -11 -17 -23 12 24 0
10 -11 -17 -24 12 23 0
10 -11 -23 -24 12 17 0
10 -12 -17 -23 11 24 0
10 -12 -17 -24 11 23 0
10 -12 -23 -24 11 17 0
10 -17 -23 -24 11 12 0
10 -8 -1 -2 3 7 9 13 14 15 0
10 -8 -1 -3 2 7 9 13 14 15 0
10 -8 -1 -7 2 3 9 13 14 15 0
10 -8 -1 -9 2 3 7 13 14 15 0
10 -8 -1 -13 2 3 7 9 14 15 0
10 -8 -1 -14 2 3 7 9 13 15 0
10 -8 -1 -15 2 3 7 9 13 14 0
10 -8 -2 -3 1 7 9 13 14 15 0
10 -8 -2 -7 1 3 9 13 14 15 0
10 -8 -2 -9 1 3 7 13 14 15 0
10 -8 -2 -13 1 3 7 9 14 15 0
10 -8 -2 -14 1 3 7 9 13 15 0
10 -8 -2 -15 1 3 7 9 13 14 0
10 -8 -3 -7 1 2 9 13 14 15 0
10 -8 -3 -9 1 2 7 13 14 15 0
10 -8 -3 -13 1 2 7 9 14 15 0
10 -8 -3 -14 1 2 7 9 13 15 0
10 -8 -3 -15 1 2 7 9 13 14 0
10 -8 -7 -9 1 2 3 13 14 15 0
10 -8 -7 -13 1 2 3 9 14 15 0
10 -8 -7 -14 1 2 3 9 13 15 0
10 -8 -7 -15 1 2 3 9 13 14 0
10 -8 -9 -13 1 2 3 7 14 15 0
10 -8 -9 -14 1 2 3 7 13 15 0
10 -8 -9 -15 1 2 3 7 13 14 0
10 -8 -13 -14 1 2 3 7 9 15 0
10 -8 -13 -15 1 2 3 7 9 14 0
10 -8 -14 -15 1 2 3 7 9 13 0
10 -1 -2 -3 7 9 13 14 15 0
10 -1 -2 -7 3 9 13 14 15 0
10 -1 -2 -9 3 7 13 14 15 0
10 -1 -2 -13 3 7 9 14 15 0
10 -1 -2 -14 3 7 9 13 15 0
10 -1 -2 -15 3 7 9 13 14 0
10 -1 -3 -7 2 9 13 14 15 0
10 -1 -3 -9 2 7 13 14 15 0
10 -1 -3 -13 2 7 9 14 15 0
10 -1 -3 -14 2 7 9 13 15 0
10 -1 -3 -15 2 7 9 13 14 0
10 -1 -7 -9 2 3 13 14 15 0
10 -1 -7 -13 2 3 9 14 15 0
10 -1 -7 -14 2 3 9 13 15 0
10 -1 -7 -15 2 3 9 13 14 0
10 -1 -9 -13 2 3 7 14 15 0
10 -1 -9 -14 2 3 7 13 15 0
10 -1 -9 -15 2 3 7 13 14 0
10 -1 -13 -14 2 3 7 9 15 0
10 -1 -13 -15 2 3 7 9 14 0
10 -1 -14 -15 2 3 7 9 13 0
10 -2 -3 -7 1 9 13 14 15 0
10 -2 -3 -9 1 7 13 14 15 0
10 -2 -3 -13 1 7 9 14 15 0
10 -2 -3 -14 1 7 9 13 15 0
10 -2 -3 -15 1 7 9 13 14 0
10 -2 -7 -9 1 3 13 14 15 0
10 -2 -7 -13 1 3 9 14 15 0
10 -2 -7 -14 1 3 9 13 15 0
10 -2 -7 -15 1 3 9 13 14 0
10 -2 -9 -13 1 3 7 14 15 0
10 -2 -9 -14 1 3 7 13 15 0
10 -2 -9 -15 1 3 7 13 14 0
10 -2 -13 -14 1 3 7 9 15 0
10 -2 -13 -15 1 3 7 9 14 0
10 -2 -14 -15 1 3 7 9 13 0
10 -3 -7 -9 1 2 13 14 15 0
10 -3 -7 -13 1 2 9 14 15 0
10 -3 -7 -14 1 2 9 13 15 0
10 -3 -7 -15 1 2 9 13 14 0
10 -3 -9 -13 1 2 7 14 15 0
10 -3 -9 -14 1 2 7 13 15 0
10 -3 -9 -15 1 2 7 13 14 0
10 -3 -13 -14 1 2 7 9 15 0
10 -3 -13 -15 1 2 7 9 14 0
10 -3 -14 -15 1 2 7 9 13 0
10 -7 -9 -13 1 2 3 14 15 0
10 -7 -9 -14 1 2 3 13 15 0
10 -7 -9 -15 1 2 3 13 14 0
10 -7 -13 -14 1 2 3 9 15 0
10 -7 -13 -15 1 2 3 9 14 0
10 -7 -14 -15 1 2 3 9 13 0
10 -9 -13 -14 1 2 3 7 15 0
10 -9 -13 -15 1 2 3 7 14 0
10 -9 -14 -15 1 2 3 7 13 0
10 -13 -14 -15 1 2 3 7 9 0
10 2 3 4 8 10 14 15 0
10 2 3 4 8 10 14 16 0
10 2 3 4 8 10 15 16 0
10 2 3 4 8 14 15 16 0
10 2 3 4 10 14 15 16 0
10 2 3 8 10 14 15 16 0
10 2 4 8 10 14 15 16 0
10 3 4 8 10 14 15 16 0
10 9 -2 -3 4 8 10 14 15 16 0
10 9 -2 -4 3 8 10 14 15 16 0
10 9 -2 -8 3 4 10 14 15 16 0
10 9 -2 -10 3 4 8 14 15 16 0
10 9 -2 -14 3 4 8 10 15 16 0
10 9 -2 -15 3 4 8 10 14 16 0
10 9 -2 -16 3 4 8 10 14 15 0
10 9 -3 -4 2 8 10 14 15 16 0
10 9 -3 -8 2 4 10 14 15 16 0
10 9 -3 -10 2 4 8 14 15 16 0
10 9 -3 -14 2 4 8 10 15 16 0
10 9 -3 -15 2 4 8 10 14 16 0
10 9 -3 -16 2 4 8 10 14 15 0
10 9 -4 -8 2 3 10 14 15 16 0
10 9 -4 -10 2 3 8 14 15 16 0
10 9 -4 -14 2 3 8 10 15 16 0
10 9 -4 -15 2 3 8 10 14 16 0
10 9 -4 -16 2 3 8 10 14 15 0
10 9 -8 -10 2 3 4 14 15 16 0
10 9 -8 -14 2 3 4 10 15 16 0
10 9 -8 -15 2 3 4 10 14 16 0
10 9 -8 -16 2 3 4 10 14 15 0
10 9 -10 -14 2 3 4 8 15 16 0
10 9 -10 -15 2 3 4 8 14 16 0
10 9 -10 -16 2 3 4 8 14 15 0
10 9 -14 -15 2 3 4 8 10 16 0
10 9 -14 -16 2 3 4 8 10 15 0
10 9 -15 -16 2 3 4 8 10 14 0
10 -2 -3 -4 -8 0
10 -2 -3 -4 -10 0
10 -2 -3 -4 -14 0
10 -2 -3 -4 -15 0
10 -2 -3 -4 -16 0
10 -2 -3 -8 -10 0
10 -2 -3 -8 -14 0
10 -2 -3 -8 -15 0
10 -2 -3 -8 -16 0
10 -2 -3 -10 -14 0
10 -2 -3 -10 -15 0
10 -2 -3 -10 -16 0
10 -2 -3 -14 -15 0
10 -2 -3 -14 -16 0
10 -2 -3 -15 -16 0
10 -2 -4 -8 -10 0
10 -2 -4 -8 -14 0
10 -2 -4 -8 -15 0
10 -2 -4 -8 -16 0
10 -2 -4 -10 -14 0
10 -2 -4 -10 -15 0
10 -2 -4 -10 -16 0
10 -2 -4 -14 -15 0
10 -2 -4 -14 -16 0
10 -2 -4 -15 -16 0
10 -2 -8 -10 -14 0
10 -2 -8 -10 -15 0
10 -2 -8 -10 -16 0
10 -2 -8 -14 -15 0
10 -2 -8 -14 -16 0
10 -2 -8 -15 -16 0
10 -2 -10 -14 -15 0
10 -2 -10 -14 -16 0
10 -2 -10 -15 -16 0
10 -2 -14 -15 -16 0
10 -3 -4 -8 -10 0
10 -3 -4 -8 -14 0
10 -3 -4 -8 -15 0
10 -3 -4 -8 -16 0
10 -3 -4 -10 -14 0
10 -3 -4 -10 -15 0
10 -3 -4 -10 -16 0
10 -3 -4 -14 -15 0
10 -3 -4 -14 -16 0
10 -3 -4 -15 -16 0
10 -3 -8 -10 -14 0
10 -3 -8 -10 -15 0
10 -3 -8 -10 -16 0
10 -3 -8 -14 -15 0
10 -3 -8 -14 -16 0
10 -3 -8 -15 -16 0
10 -3 -10 -14 -15 0
10 -3 -10 -14 -16 0
10 -3 -10 -15 -16 0
10 -3 -14 -15 -16 0
10 -4 -8 -10 -14 0
10 -4 -8 -10 -15 0
10 -4 -8 -10 -16 0
10 -4 -8 -14 -15 0
10 -4 -8 -14 -16 0
10 -4 -8 -15 -16 0
10 -4 -10 -14 -15 0
10 -4 -10 -14 -16 0
10 -4 -10 -15 -16 0
10 -4 -14 -15 -16 0
10 -8 -10 -14 -15 0
10 -8 -10 -14 -16 0
10 -8 -10 -15 -16 0
10 -8 -14 -15 -16 0
10 -10 -14 -15 -16 0
10 3 4 5 9 11 15 16 0
10 3 4 5 9 11 15 17 0
10 3 4 5 9 11 16 17 0
10 3 4 5 9 15 16 17 0
10 3 4 5 11 15 16 17 0
10 3 4 9 11 15 16 17 0
10 3 5 9 11 15 16 17 0
10 4 5 9 11 15 16 17 0
10 10 -3 -4 5 9 11 15 16 17 0
10 10 -3 -5 4 9 11 15 16 17 0
10 10 -3 -9 4 5 11 15 16 17 0
10 10 -3 -11 4 5 9 15 16 17 0
10 10 -3 -15 4 5 9 11 16 17 0
10 10 -3 -16 4 5 9 11 15 17 0
10 10 -3 -17 4 5 9 11 15 16 0
10 10 -4 -5 3 9 11 15 16 17 0
10 10 -4 -9 3 5 11 15 16 17 0
10 10 -4 -11 3 5 9 15 16 17 0
10 10 -4 -15 3 5 9 11 16 17 0
10 10 -4 -16 3 5 9 11 15 17 0
10 10 -4 -17 3 5 9 11 15 16 0
10 10 -5 -9 3 4 11 15 16 17 0
10 10 -5 -11 3 4 9 15 16 17 0
10 10 -5 -15 3 4 9 11 16 17 0
10 10 -5 -16 3 4 9 11 15 17 0
10 10 -5 -17 3 4 9 11 15 16 0
10 10 -9 -11 3 4 5 15 16 17 0
10 10 -9 -15 3 4 5 11 16 17 0
10 10 -9 -16 3 4 5 11 15 17 0
10 10 -9 -17 3 4 5 11 15 16 0
10 10 -11 -15 3 4 5 9 16 17 0
10 10 -11 -16 3 4 5 9 15 17 0
10 10 -11 -17 3 4 5 9 15 16 0
10 10 -15 -16 3 4 5 9 11 17 0
10 10 -15 -17 3 4 5 9 11 16 0
10 10 -16 -17 3 4 5 9 11 15 0
10 -3 -4 -5 -9 0
10 -3 -4 -5 -11 0
10 -3 -4 -5 -15 0
10 -3 -4 -5 -16 0
10 -3 -4 -5 -17 0
10 -3 -4 -9 -11 0
10 -3 -4 -9 -15 0
10 -3 -4 -9 -16 0
10 -3 -4 -9 -17 0
10 -3 -4 -11 -15 0
10 -3 -4 -11 -16 0
10 -3 -4 -11 -17 0
10 -3 -4 -15 -16 0
10 -3 -4 -15 -17 0
10 -3 -4 -16 -17 0
10 -3 -5 -9 -11 0
10 -3 -5 -9 -15 0
10 -3 -5 -9 -16 0
10 -3 -5 -9 -17 0
10 -3 -5 -11 -15 0
10 -3 -5 -11 -16 0
10 -3 -5 -11 -17 0
10 -3 -5 -15 -16 0
10 -3 -5 -15 -17 0
10 -3 -5 -16 -17 0
10 -3 -9 -11 -15 0
10 -3 -9 -11 -16 0
10 -3 -9 -11 -17 0
10 -3 -9 -15 -16 0
10 -3 -9 -15 -17 0
10 -3 -9 -16 -17 0
10 -3 -11 -15 -16 0
10 -3 -11 -15 -17 0
10 -3 -11 -16 -17 0
10 -3 -15 -16 -17 0
10 -4 -5 -9 -11 0
10 -4 -5 -9 -15 0
10 -4 -5 -9 -16 0
10 -4 -5 -9 -17 0
10 -4 -5 -11 -15 0
10 -4 -5 -11 -16 0
10 -4 -5 -11 -17 0
10 -4 -5 -15 -16 0
10 -4 -5 -15 -17 0
10 -4 -5 -16 -17 0
10 -4 -9 -11 -15 0
10 -4 -9 -11 -16 0
10 -4 -9 -11 -17 0
10 -4 -9 -15 -16 0
10 -4 -9 -15 -17 0
10 -4 -9 -16 -17 0
10 -4 -11 -15 -16 0
10 -4 -11 -15 -17 0
10 -4 -11 -16 -17 0
10 -4 -15 -16 -17 0
10 -5 -9 -11 -15 0
10 -5 -9 -11 -16 0
10 -5 -9 -11 -17 0
10 -5 -9 -15 -16 0
10 -5 -9 -15 -17 0
10 -5 -9 -16 -17 0
10 -5 -11 -15 -16 0
10 -5 -11 -15 -17 0
10 -5 -11 -16 -17 0
10 -5 -15 -16 -17 0
10 -9 -11 -15 -16 0
10 -9 -11 -15 -17 0
10 -9 -11 -16 -17 0
10 -9 -15 -16 -17 0
10 -11 -15 -16 -17 0
10 -11 -4 -5 6 10 12 16 17 18 0
10 -11 -4 -6 5 10 12 16 17 18 0
10 -11 -4 -10 5 6 12 16 17 18 0
10 -11 -4 -12 5 6 10 16 17 18 0
10 -11 -4 -16 5 6 10 12 17 18 0
10 -11 -4 -17 5 6 10 12 16 18 0
10 -11 -4 -18 5 6 10 12 16 17 0
10 -11 -5 -6 4 10 12 16 17 18 0
10 -11 -5 -10 4 6 12 16 17 18 0
10 -11 -5 -12 4 6 10 16 17 18 0
10 -11 -5 -16 4 6 10 12 17 18 0
10 -11 -5 -17 4 6 10 12 16 18 0
10 -11 -5 -18 4 6 10 12 16 17 0
10 -11 -6 -10 4 5 12 16 17 18 0
10 -11 -6 -12 4 5 10 16 17 18 0
10 -11 -6 -16 4 5 10 12 17 18 0
10 -11 -6 -17 4 5 10 12 16 18 0
10 -11 -6 -18 4 5 10 12 16 17 0
10 -11 -10 -12 4 5 6 16 17 18 0
10 -11 -10 -16 4 5 6 12 17 18 0
10 -11 -10 -17 4 5 6 12 16 18 0
10 -11 -10 -18 4 5 6 12 16 17 0
10 -11 -12 -16 4 5 6 10 17 18 0
10 -11 -12 -17 4 5 6 10 16 18 0
10 -11 -12 -18 4 5 6 10 16 17 0
10 -11 -16 -17 4 5 6 10 12 18 0
10 -11 -16 -18 4 5 6 10 12 17 0
10 -11 -17 -18 4 5 6 10 12 16 0
10 -4 -5 -6 10 12 16 17 18 0
10 -4 -5 -10 6 12 16 17 18 0
10 -4 -5 -12 6 10 16 17 18 0
10 -4 -5 -16 6 10 12 17 18 0
10 -4 -5 -17 6 10 12 16 18 0
10 -4 -5 -18 6 10 12 16 17 0
10 -4 -6 -10 5 12 16 17 18 0
10 -4 -6 -12 5 10 16 17 18 0
10 -4 -6 -16 5 10 12 17 18 0
10 -4 -6 -17 5 10 12 16 18 0
10 -4 -6 -18 5 10 12 16 17 0
10 -4 -10 -12 5 6 16 17 18 0
10 -4 -10 -16 5 6 12 17 18 0
10 -4 -10 -17 5 6 12 16 18 0
10 -4 -10 -18 5 6 12 16 17 0
10 -4 -12 -16 5 6 10 17 18 0
10 -4 -12 -17 5 6 10 16 18 0
10 -4 -12 -18 5 6 10 16 17 0
10 -4 -16 -17 5 6 10 12 18 0
10 -4 -16 -18 5 6 10 12 17 0
10 -4 -17 -18 5 6 10 12 16 0
10 -5 -6 -10 4 12 16 17 18 0
10 -5 -6 -12 4 10 16 17 18 0
10 -5 -6 -16 4 10 12 17 18 0
10 -5 -6 -17 4 10 12 16 18 0
10 -5 -6 -18 4 10 12 16 17 0
10 -5 -10 -12 4 6 16 17 18 0
10 -5 -10 -16 4 6 12 17 18 0
10 -5 -10 -17 4 6 12 16 18 0
10 -5 -10 -18 4 6 12 16 17 0
10 -5 -12 -16 4 6 10 17 18 0
10 -5 -12 -17 4 6 10 16 18 0
10 -5 -12 -18 4 6 10 16 17 0
10 -5 -16 -17 4 6 10 12 18 0
10 -5 -16 -18 4 6 10 12 17 0
10 -5 -17 -18 4 6 10 12 16 0
10 -6 -10 -12 4 5 16 17 18 0
10 -6 -10 -16 4 5 12 17 18 0
10 -6 -10 -17 4 5 12 16 18 0
10 -6 -10 -18 4 5 12 16 17 0
10 -6 -12 -16 4 5 10 17 18 0
10 -6 -12 -17 4 5 10 16 18 0
10 -6 -12 -18 4 5 10 16 17 0
10 -6 -16 -17 4 5 10 12 18 0
10 -6 -16 -18 4 5 10 12 17 0
10 -6 -17 -18 4 5 10 12 16 0
10 -10 -12 -16 4 5 6 17 18 0
10 -10 -12 -17 4 5 6 16 18 0
10 -10 -12 -18 4 5 6 16 17 0
10 -10 -16 -17 4 5 6 12 18 0
10 -10 -16 -18 4 5 6 12 17 0
10 -10 -17 -18 4 5 6 12 16 0
10 -12 -16 -17 4 5 6 10 18 0
10 -12 -16 -18 4 5 6 10 17 0
10 -12 -17 -18 4 5 6 10 16 0
10 -16 -17 -18 4 5 6 10 12 0
10 -14 -7 -8 9 13 15 19 20 21 0
10 -14 -7 -9 8 13 15 19 20 21 0
10 -14 -7 -13 8 9 15 19 20 21 0
10 -14 -7 -15 8 9 13 19 20 21 0
10 -14 -7 -19 8 9 13 15 20 21 0
10 -14 -7 -20 8 9 13 15 19 21 0
10 -14 -7 -21 8 9 13 15 19 20 0
10 -14 -8 -9 7 13 15 19 20 21 0
10 -14 -8 -13 7 9 15 19 20 21 0
10 -14 -8 -15 7 9 13 19 20 21 0
10 -14 -8 -19 7 9 13 15 20 21 0
10 -14 -8 -20 7 9 13 15 19 21 0
10 -14 -8 -21 7 9 13 15 19 20 0
10 -14 -9 -13 7 8 15 19 20 21 0
10 -14 -9 -15 7 8 13 19 20 21 0
10 -14 -9 -19 7 8 13 15 20 21 0
10 -14 -9 -20 7 8 13 15 19 21 0
10 -14 -9 -21 7 8 13 15 19 20 0
10 -14 -13 -15 7 8 9 19 20 21 0
10 -14 -13 -19 7 8 9 15 20 21 0
10 -14 -13 -20 7 8 9 15 19 21 0
10 -14 -13 -21 7 8 9 15 19 20 0
10 -14 -15 -19 7 8 9 13 20 21 0
10 -14 -15 -20 7 8 9 13 19 21 0
10 -14 -15 -21 7 8 9 13 19 20 0
10 -14 -19 -20 7 8 9 13 15 21 0
10 -14 -19 -21 7 8 9 13 15 20 0
10 -14 -20 -21 7 8 9 13 15 19 0
10 -7 -8 -9 13 15 19 20 21 0
10 -7 -8 -13 9 15 19 20 21 0
10 -7 -8 -15 9 13 19 20 21 0
10 -7 -8 -19 9 13 15 20 21 0
10 -7 -8 -20 9 13 15 19 21 0
10 -7 -8 -21 9 13 15 19 20 0
10 -7 -9 -13 8 15 19 20 21 0
10 -7 -9 -15 8 13 19 20 21 0
10 -7 -9 -19 8 13 15 20 21 0
10 -7 -9 -20 8 13 15 19 21 0
10 -7 -9 -21 8 13 15 19 20 0
10 -7 -13 -15 8 9 19 20 21 0
10 -7 -13 -19 8 9 15 20 21 0
10 -7 -13 -20 8 9 15 19 21 0
10 -7 -13 -21 8 9 15 19 20 0
10 -7 -15 -19 8 9 13 20 21 0
10 -7 -15 -20 8 9 13 19 21 0
10 -7 -15 -21 8 9 13 19 20 0
10 -7 -19 -20 8 9 13 15 21 0
10 -7 -19 -21 8 9 13 15 20 0
10 -7 -20 -21 8 9 13 15 19 0
10 -8 -9 -13 7 15 19 20 21 0
10 -8 -9 -15 7 13 19 20 21 0
10 -8 -9 -19 7 13 15 20 21 0
10 -8 -9 -20 7 13 15 19 21 0
10 -8 -9 -21 7 13 15 19 20 0
10 -8 -13 -15 7 9 19 20 21 0
10 -8 -13 -19 7 9 15 20 21 0
10 -8 -13 -20 7 9 15 19 21 0
10 -8 -13 -21 7 9 15 19 20 0
10 -8 -15 -19 7 9 13 20 21 0
10 -8 -15 -20 7 9 13 19 21 0
10 -8 -15 -21 7 9 13 19 20 0
10 -8 -19 -20 7 9 13 15 21 0
10 -8 -19 -21 7 9 13 15 20 0
10 -8 -20 -21 7 9 13 15 19 0
10 -9 -13 -15 7 8 19 20 21 0
10 -9 -13 -19 7 8 15 20 21 0
10 -9 -13 -20 7 8 15 19 21 0
10 -9 -13 -21 7 8 15 19 20 0
10 -9 -15 -19 7 8 13 20 21 0
10 -9 -15 -20 7 8 13 19 21 0
10 -9 -15 -21 7 8 13 19 20 0
10 -9 -19 -20 7 8 13 15 21 0
10 -9 -19 -21 7 8 13 15 20 0
10 -9 -20 -21 7 8 13 15 19 0
10 -13 -15 -19 7 8 9 20 21 0
10 -13 -15 -20 7 8 9 19 21 0
10 -13 -15 -21 7 8 9 19 20 0
10 -13 -19 -20 7 8 9 15 21 0
10 -13 -19 -21 7 8 9 15 20 0
10 -13 -20 -21 7 8 9 15 19 0
10 -15 -19 -20 7 8 9 13 21 0
10 -15 -19 -21 7 8 9 13 20 0
10 -15 -20 -21 7 8 9 13 19 0
10 -19 -20 -21 7 8 9 13 15 0
10 -15 -8 -9 10 14 16 20 21 22 0
10 -15 -8 -10 9 14 16 20 21 22 0
10 -15 -8 -14 9 10 16 20 21 22 0
10 -15 -8 -16 9 10 14 20 21 22 0
10 -15 -8 -20 9 10 14 16 21 22 0
10 -15 -8 -21 9 10 14 16 20 22 0
10 -15 -8 -22 9 10 14 16 20 21 0
10 -15 -9 -10 8 14 16 20 21 22 0
10 -15 -9 -14 8 10 16 20 21 22 0
10 -15 -9 -16 8 10 14 20 21 22 0
10 -15 -9 -20 8 10 14 16 21 22 0
10 -15 -9 -21 8 10 14 16 20 22 0
10 -15 -9 -22 8 10 14 16 20 21 0
10 -15 -10 -14 8 9 16 20 21 22 0
10 -15 -10 -16 8 9 14 20 21 22 0
10 -15 -10 -20 8 9 14 16 21 22 0
10 -15 -10 -21 8 9 14 16 20 22 0
10 -15 -10 -22 8 9 14 16 20 21 0
10 -15 -14 -16 8 9 10 20 21 22 0
10 -15 -14 -20 8 9 10 16 21 22 0
10 -15 -14 -21 8 9 10 16 20 22 0
10 -15 -14 -22 8 9 10 16 20 21 0
10 -15 -16 -20 8 9 10 14 21 22 0
10 -15 -16 -21 8 9 10 14 20 22 0
10 -15 -16 -22 8 9 10 14 20 21 0
10 -15 -20 -21 8 9 10 14 16 22 0
10 -15 -20 -22 8 9 10 14 16 21 0
10 -15 -21 -22 8 9 10 14 16 20 0
10 -8 -9 -10 14 16 20 21 22 0
10 -8 -9 -14 10 16 20 21 22 0
10 -8 -9 -16 10 14 20 21 22 0
10 -8 -9 -20 10 14 16 21 22 0
10 -8 -9 -21 10 14 16 20 22 0
10 -8 -9 -22 10 14 16 20 21 0
10 -8 -10 -14 9 16 20 21 22 0
10 -8 -10 -16 9 14 20 21 22 0
10 -8 -10 -20 9 14 16 21 22 0
10 -8 -10 -21 9 14 16 20 22 0
10 -8 -10 -22 9 14 16 20 21 0
10 -8 -14 -16 9 10 20 21 22 0
10 -8 -14 -20 9 10 16 21 22 0
10 -8 -14 -21 9 10 16 20 22 0
10 -8 -14 -22 9 10 16 20 21 0
10 -8 -16 -20 9 10 14 21 22 0
10 -8 -16 -21 9 10 14 20 22 0
10 -8 -16 -22 9 10 14 20 21 0
10 -8 -20 -21 9 10 14 16 22 0
10 -8 -20 -22 9 10 14 16 21 0
10 -8 -21 -22 9 10 14 16 20 0
10 -9 -10 -14 8 16 20 21 22 0
10 -9 -10 -16 8 14 20 21 22 0
10 -9 -10 -20 8 14 16 21 22 0
10 -9 -10 -21 8 14 16 20 22 0
10 -9 -10 -22 8 14 16 20 21 0
10 -9 -14 -16 8 10 20 21 22 0
10 -9 -14 -20 8 10 16 21 22 0
10 -9 -14 -21 8 10 16 20 22 0
10 -9 -14 -22 8 10 16 20 21 0
10 -9 -16 -20 8 10 14 21 22 0
10 -9 -16 -21 8 10 14 20 22 0
10 -9 -16 -22 8 10 14 20 21 0
10 -9 -20 -21 8 10 14 16 22 0
10 -9 -20 -22 8 10 14 16 21 0
10 -9 -21 -22 8 10 14 16 20 0
10 -10 -14 -16 8 9 20 21 22 0
10 -10 -14 -20 8 9 16 21 22 0
10 -10 -14 -21 8 9 16 20 22 0
10 -10 -14 -22 8 9 16 20 21 0
10 -10 -16 -20 8 9 14 21 22 0
10 -10 -16 -21 8 9 14 20 22 0
10 -10 -16 -22 8 9 14 20 21 0
10 -10 -20 -21 8 9 14 16 22 0
10 -10 -20 -22 8 9 14 16 21 0
10 -10 -21 -22 8 9 14 16 20 0
10 -14 -16 -20 8 9 10 21 22 0
10 -14 -16 -21 8 9 10 20 22 0
10 -14 -16 -22 8 9 10 20 21 0
10 -14 -20 -21 8 9 10 16 22 0
10 -14 -20 -22 8 9 10 16 21 0
10 -14 -21 -22 8 9 10 16 20 0
10 -16 -20 -21 8 9 10 14 22 0
10 -16 -20 -22 8 9 10 14 21 0
10 -16 -21 -22 8 9 10 14 20 0
10 -20 -21 -22 8 9 10 14 16 0
10 9 10 11 15 17 21 22 0
10 9 10 11 15 17 21 23 0
10 9 10 11 15 17 22 23 0
10 9 10 11 15 21 22 23 0
10 9 10 11 17 21 22 23 0
10 9 10 15 17 21 22 23 0
10 9 11 15 17 21 22 23 0
10 10 11 15 17 21 22 23 0
10 16 -9 -10 11 15 17 21 22 23 0
10 16 -9 -11 10 15 17 21 22 23 0
10 16 -9 -15 10 11 17 21 22 23 0
10 16 -9 -17 10 11 15 21 22 23 0
10 16 -9 -21 10 11 15 17 22 23 0
10 16 -9 -22 10 11 15 17 21 23 0
10 16 -9 -23 10 11 15 17 21 22 0
10 16 -10 -11 9 15 17 21 22 23 0
10 16 -10 -15 9 11 17 21 22 23 0
10 16 -10 -17 9 11 15 21 22 23 0
10 16 -10 -21 9 11 15 17 22 23 0
10 16 -10 -22 9 11 15 17 21 23 0
10 16 -10 -23 9 11 15 17 21 22 0
10 16 -11 -15 9 10 17 21 22 23 0
10 16 -11 -17 9 10 15 21 22 23 0
10 16 -11 -21 9 10 15 17 22 23 0
10 16 -11 -22 9 10 15 17 21 23 0
10 16 -11 -23 9 10 15 17 21 22 0
10 16 -15 -17 9 10 11 21 22 23 0
10 16 -15 -21 9 10 11 17 22 23 0
10 16 -15 -22 9 10 11 17 21 23 0
10 16 -15 -23 9 10 11 17 21 22 0
10 16 -17 -21 9 10 11 15 22 23 0
10 16 -17 -22 9 10 11 15 21 23 0
10 16 -17 -23 9 10 11 15 21 22 0
10 16 -21 -22 9 10 11 15 17 23 0
10 16 -21 -23 9 10 11 15 17 22 0
10 16 -22 -23 9 10 11 15 17 21 0
10 -9 -10 -11 -15 0
10 -9 -10 -11 -17 0
10 -9 -10 -11 -21 0
10 -9 -10 -11 -22 0
10 -9 -10 -11 -23 0
10 -9 -10 -15 -17 0
10 -9 -10 -15 -21 0
10 -9 -10 -15 -22 0
10 -9 -10 -15 -23 0
10 -9 -10 -17 -21 0
10 -9 -10 -17 -22 0
10 -9 -10 -17 -23 0
10 -9 -10 -21 -22 0
10 -9 -10 -21 -23 0
10 -9 -10 -22 -23 0
10 -9 -11 -15 -17 0
10 -9 -11 -15 -21 0
10 -9 -11 -15 -22 0
10 -9 -11 -15 -23 0
10 -9 -11 -17 -21 0
10 -9 -11 -17 -22 0
10 -9 -11 -17 -23 0
10 -9 -11 -21 -22 0
10 -9 -11 -21 -23 0
10 -9 -11 -22 -23 0
10 -9 -15 -17 -21 0
10 -9 -15 -17 -22 0
10 -9 -15 -17 -23 0
10 -9 -15 -21 -22 0
10 -9 -15 -21 -23 0
10 -9 -15 -22 -23 0
10 -9 -17 -21 -22 0
10 -9 -17 -21 -23 0
10 -9 -17 -22 -23 0
10 -9 -21 -22 -23 0
10 -10 -11 -15 -17 0
10 -10 -11 -15 -21 0
10 -10 -11 -15 -22 0
10 -10 -11 -15 -23 0
10 -10 -11 -17 -21 0
10 -10 -11 -17 -22 0
10 -10 -11 -17 -23 0
10 -10 -11 -21 -22 0
10 -10 -11 -21 -23 0
10 -10 -11 -22 -23 0
10 -10 -15 -17 -21 0
10 -10 -15 -17 -22 0
10 -10 -15 -17 -23 0
10 -10 -15 -21 -22 0
10 -10 -15 -21 -23 0
10 -10 -15 -22 -23 0
10 -10 -17 -21 -22 0
10 -10 -17 -21 -23 0
10 -10 -17 -22 -23 0
10 -10 -21 -22 -23 0
10 -11 -15 -17 -21 0
10 -11 -15 -17 -22 0
10 -11 -15 -17 -23 0
10 -11 -15 -21 -22 0
10 -11 -15 -21 -23 0
10 -11 -15 -22 -23 0
10 -11 -17 -21 -22 0
10 -11 -17 -21 -23 0
10 -11 -17 -22 -23 0
10 -11 -21 -22 -23 0
10 -15 -17 -21 -22 0
10 -15 -17 -21 -23 0
10 -15 -17 -22 -23 0
10 -15 -21 -22 -23 0
10 -17 -21 -22 -23 0
10 10 11 12 16 18 22 23 0
10 10 11 12 16 18 22 24 0
10 10 11 12 16 18 23 24 0
10 10 11 12 16 22 23 24 0
10 10 11 12 18 22 23 24 0
10 10 11 16 18 22 23 24 0
10 10 12 16 18 22 23 24 0
10 11 12 16 18 22 23 24 0
10 17 -10 -11 12 16 18 22 23 24 0
10 17 -10 -12 11 16 18 22 23 24 0
10 17 -10 -16 11 12 18 22 23 24 0
10 17 -10 -18 11 12 16 22 23 24 0
10 17 -10 -22 11 12 16 18 23 24 0
10 17 -10 -23 11 12 16 18 22 24 0
10 17 -10 -24 11 12 16 18 22 23 0
10 17 -11 -12 10 16 18 22 23 24 0
10 17 -11 -16 10 12 18 22 23 24 0
10 17 -11 -18 10 12 16 22 23 24 0
10 17 -11 -22 10 12 16 18 23 24 0
10 17 -11 -23 10 12 16 18 22 24 0
10 17 -11 -24 10 12 16 18 22 23 0
10 17 -12 -16 10 11 18 22 23 24 0
10 17 -12 -18 10 11 16 22 23 24 0
10 17 -12 -22 10 11 16 18 23 24 0
10 17 -12 -23 10 11 16 18 22 24 0
10 17 -12 -24 10 11 16 18 22 23 0
10 17 -16 -18 10 11 12 22 23 24 0
10 17 -16 -22 10 11 12 18 23 24 0
10 17 -16 -23 10 11 12 18 22 24 0
10 17 -16 -24 10 11 12 18 22 23 0
10 17 -18 -22 10 11 12 16 23 24 0
10 17 -18 -23 10 11 12 16 22 24 0
10 17 -18 -24 10 11 12 16 22 23 0
10 17 -22 -23 10 11 12 16 18 24 0
10 17 -22 -24 10 11 12 16 18 23 0
10 17 -23 -24 10 11 12 16 18 22 0
10 -10 -11 -12 -16 0
10 -10 -11 -12 -18 0
10 -10 -11 -12 -22 0
10 -10 -11 -12 -23 0
10 -10 -11 -12 -24 0
10 -10 -11 -16 -18 0
10 -10 -11 -16 -22 0
10 -10 -11 -16 -23 0
10 -10 -11 -16 -24 0
10 -10 -11 -18 -22 0
10 -10 -11 -18 -23 0
10 -10 -11 -18 -24 0
10 -10 -11 -22 -23 0
10 -10 -11 -22 -24 0
10 -10 -11 -23 -24 0
10 -10 -12 -16 -18 0
10 -10 -12 -16 -22 0
10 -10 -12 -16 -23 0
10 -10 -12 -16 -24 0
10 -10 -12 -18 -22 0
10 -10 -12 -18 -23 0
10 -10 -12 -18 -24 0
10 -10 -12 -22 -23 0
10 -10 -12 -22 -24 0
10 -10 -12 -23 -24 0
10 -10 -16 -18 -22 0
10 -10 -16 -18 -23 0
10 -10 -16 -18 -24 0
10 -10 -16 -22 -23 0
10 -10 -16 -22 -24 0
10 -10 -16 -23 -24 0
10 -10 -18 -22 -23 0
10 -10 -18 -22 -24 0
10 -10 -18 -23 -24 0
10 -10 -22 -23 -24 0
10 -11 -12 -16 -18 0
10 -11 -12 -16 -22 0
10 -11 -12 -16 -23 0
10 -11 -12 -16 -24 0
10 -11 -12 -18 -22 0
10 -11 -12 -18 -23 0
10 -11 -12 -18 -24 0
10 -11 -12 -22 -23 0
10 -11 -12 -22 -24 0
10 -11 -12 -23 -24 0
10 -11 -16 -18 -22 0
10 -11 -16 -18 -23 0
10 -11 -16 -18 -24 0
10 -11 -16 -22 -23 0
10 -11 -16 -22 -24 0
10 -11 -16 -23 -24 0
10 -11 -18 -22 -23 0
10 -11 -18 -22 -24 0
10 -11 -18 -23 -24 0
10 -11 -22 -23 -24 0
10 -12 -16 -18 -22 0
10 -12 -16 -18 -23 0
10 -12 -16 -18 -24 0
10 -12 -16 -22 -23 0
10 -12 -16 -22 -24 0
10 -12 -16 -23 -24 0
10 -12 -18 -22 -23 0
10 -12 -18 -22 -24 0
10 -12 -18 -23 -24 0
10 -12 -22 -23 -24 0
10 -16 -18 -22 -23 0
10 -16 -18 -22 -24 0
10 -16 -18 -23 -24 0
10 -16 -22 -23 -24 0
10 -18 -22 -23 -24 0
1 -1 0
1 -2 0
1 -3 0
1 -4 0
1 -5 0
1 -6 0
1 -7 0
1 -8 0
1 -9 0
1 -10 0
1 -11 0
1 -12 0
1 -13 0
1 -14 0
1 -15 0
1 -16 0
1 -17 0
1 -18 0
1 -19 0
1 -20 0
1 -21 0
1 -22 0
1 -23 0
1 -24 0
